1579814
64,6,41,30,25,29,60,23,49,19,5,40,56,32,42,61,24,63,16,59,50,28,31,22,52,33,57,18,10,14,44,53,37,62,39,51,35,68,8,36,15,58,9,17,27,45,65,2,48,4,20,47,13,54,1,12,3,21,38,67,7,43,46,34,55,26,66,11